VALOR = 150;
MAXV = 300;
MAXN= 250;
MCAP = 1000;
CA = 5;
MinD = 3;
MaxD = 5;
MinB = 3000;%
%MinB = 1000;
preciosVeg = [|20,120|200,70|110,140|120,150|400,400|75,50|];
preciosNoVeg = [|130,140,115|160,90,65|130,100,95|50,120,125|400,400,400|140,80,135|];

durezaVeg = [2.8,5.1];
durezaNoVeg = [4.0,4.2,3.0];

cantidadVeg = [500,600];
cantidadNoVeg = [200,300,500];
K =2;
T = 200;